c description: Random 7-CNF over 15 variables and 15 clauses
c generator: CNFgen (0.9.0)
c copyright: (C) 2012-2020 Massimo Lauria <massimo.lauria@uniroma1.it>
c url: https://massimolauria.net/cnfgen
c
p cnf 15 15
-2 5 7 11 -12 -13 -15 0
2 6 -7 8 -10 -11 -12 0
-1 2 -3 -7 -9 10 -12 0
-1 3 5 6 -7 -10 11 0
2 3 -4 6 7 -9 10 0
2 4 -7 8 11 12 13 0
-1 -4 6 7 -9 -13 -14 0
1 -4 6 -9 12 13 -15 0
2 -5 6 9 11 14 15 0
-1 -2 6 9 12 13 15 0
-4 7 10 -11 -12 -14 -15 0
3 4 5 7 8 -14 -15 0
-2 -3 -7 8 9 12 14 0
-3 -4 6 -8 -9 -11 -12 0
-4 -5 -6 7 -8 14 15 0